This is Ipopt version 3.14.16, running with linear solver MUMPS 5.7.3.

Number of nonzeros in equality constraint Jacobian...:        0
Number of nonzeros in inequality constraint Jacobian.:      578
Number of nonzeros in Lagrangian Hessian.............:        0

Total number of variables............................:       17
                     variables with only lower bounds:        0
                variables with lower and upper bounds:       17
                     variables with only upper bounds:        0
Total number of equality constraints.................:        0
Total number of inequality constraints...............:       34
        inequality constraints with only lower bounds:        0
   inequality constraints with lower and upper bounds:        0
        inequality constraints with only upper bounds:       34

iter    objective    inf_pr   inf_du lg(mu)  ||d||  lg(rg) alpha_du alpha_pr  ls
   0  2.3875376e-03 4.37e+01 1.01e+00   0.0 0.00e+00    -  0.00e+00 0.00e+00   0
   1  5.5175749e-03 1.39e+00 1.65e+00  -1.4 2.24e-01    -  4.27e-01 1.00e+00h  1
   2  5.6113730e-03 0.00e+00 1.46e-01  -6.1 2.37e-02    -  9.32e-01 1.00e+00h  1
   3  5.6250558e-03 0.00e+00 1.69e-02  -3.4 1.06e-02    -  9.88e-01 1.00e+00h  1
   4  5.6269463e-03 0.00e+00 3.30e-03  -4.7 4.47e-02    -  9.98e-01 1.00e+00h  1
   5  5.5270401e-03 0.00e+00 1.80e-03  -4.6 2.49e-01    -  9.97e-01 1.00e+00h  1
   6  5.3736143e-03 0.00e+00 2.87e-03  -4.4 3.49e-01    -  1.00e+00 1.00e+00h  1
   7  5.2637947e-03 0.00e+00 7.45e-04  -4.8 5.67e-01    -  1.00e+00 1.00e+00h  1
   8  5.1921104e-03 0.00e+00 1.15e-04  -5.6 1.04e-01    -  1.00e+00 1.00e+00h  1
   9  5.1835626e-03 0.00e+00 2.65e-04  -5.3 4.62e-02    -  1.00e+00 1.00e+00h  1
iter    objective    inf_pr   inf_du lg(mu)  ||d||  lg(rg) alpha_du alpha_pr  ls
  10  5.1613151e-03 1.56e-03 1.12e-04  -6.1 5.25e-02    -  1.00e+00 1.00e+00h  1
  11  5.1549590e-03 2.30e-03 4.63e-05  -6.7 9.35e-03    -  9.99e-01 1.00e+00h  1
  12  5.1526839e-03 6.00e-04 2.96e-05  -8.0 2.95e-03    -  1.00e+00 1.00e+00h  1
  13  5.1522496e-03 1.82e-04 1.68e-05  -8.9 2.65e-03    -  1.00e+00 1.00e+00h  1
  14  5.1522061e-03 0.00e+00 1.07e-05  -9.2 3.11e-03    -  1.00e+00 1.00e+00h  1
  15  5.1522303e-03 8.04e-04 9.84e-06  -7.9 3.96e-03    -  1.00e+00 1.00e+00h  1
  16  5.1522685e-03 0.00e+00 3.89e-06  -8.0 1.54e-03    -  1.00e+00 1.00e+00h  1

Number of Iterations....: 16

                                   (scaled)                 (unscaled)
Objective...............:   5.1522685049634250e-03    5.1522685049634250e-03
Dual infeasibility......:   3.8871757389621546e-06    3.8871757389621546e-06
Constraint violation....:   0.0000000000000000e+00    0.0000000000000000e+00
Variable bound violation:   0.0000000000000000e+00    0.0000000000000000e+00
Complementarity.........:   1.2257480545203898e-08    1.2257480545203898e-08
Overall NLP error.......:   3.8871757389621546e-06    3.8871757389621546e-06


Number of objective function evaluations             = 17
Number of objective gradient evaluations             = 17
Number of equality constraint evaluations            = 0
Number of inequality constraint evaluations          = 17
Number of equality constraint Jacobian evaluations   = 0
Number of inequality constraint Jacobian evaluations = 17
Number of Lagrangian Hessian evaluations             = 0
Total seconds in IPOPT                               = 19.413

EXIT: Optimal Solution Found.
